NAME: tsp30_25
COMMENT: 30-tsp problem (Padberg/Rinaldi)
TYPE: TSP
DIMENSION: 30
EDGE_WEIGHT_TYPE : EUC_2D
NODE_COORD_SECTION
1 23 8
2 14 14
3 34 22
4 2 10
5 8 35
6 11 39
7 7 38
8 21 26
9 38 27
10 4 39
11 34 16
12 18 6
13 34 0
14 40 10
15 8 16
16 7 7
17 5 9
18 18 11
19 5 19
20 27 3
21 8 17
22 22 38
23 39 17
24 13 33
25 1 34
26 33 21
27 7 1
28 19 28
29 28 37
30 12 23
